\Problem name: compact

Minimize
OBJROW: C
Subject To
ord(0,1):  - x(0,0) + x(0,1) >= 10
ord(0,2):  - x(0,1) + x(0,2) >= 9
ord(1,1):  - x(1,0) + x(1,2) >= 5
ord(1,2):  x(1,1) - x(1,2) >= 4
ord(2,1):  - x(2,1) + x(2,2) >= 2
ord(2,2):  x(2,0) - x(2,2) >= 4
ord(3,1):  x(3,0) - x(3,2) >= 10
ord(3,2):  - x(3,0) + x(3,1) >= 1
triangle2(0,1,0):  y(0,1,0) + y(1,0,0) = 1
triangle2(0,1,1):  y(0,1,1) + y(1,0,1) = 1
triangle2(0,1,2):  y(0,1,2) + y(1,0,2) = 1
triangle2(0,2,0):  y(0,2,0) + y(2,0,0) = 1
triangle2(0,2,1):  y(0,2,1) + y(2,0,1) = 1
triangle2(0,2,2):  y(0,2,2) + y(2,0,2) = 1
triangle2(0,3,0):  y(0,3,0) + y(3,0,0) = 1
triangle2(0,3,1):  y(0,3,1) + y(3,0,1) = 1
triangle2(0,3,2):  y(0,3,2) + y(3,0,2) = 1
triangle2(1,2,0):  y(1,2,0) + y(2,1,0) = 1
triangle2(1,2,1):  y(1,2,1) + y(2,1,1) = 1
triangle2(1,2,2):  y(1,2,2) + y(2,1,2) = 1
triangle2(1,3,0):  y(1,3,0) + y(3,1,0) = 1
triangle2(1,3,1):  y(1,3,1) + y(3,1,1) = 1
triangle2(1,3,2):  y(1,3,2) + y(3,1,2) = 1
triangle2(2,3,0):  y(2,3,0) + y(3,2,0) = 1
triangle2(2,3,1):  y(2,3,1) + y(3,2,1) = 1
triangle2(2,3,2):  y(2,3,2) + y(3,2,2) = 1
MCLinV(0,1,0):  x(0,0) - v(0,1,0) - x(1,0) = 5
MCLinV(1,0,0):  - x(0,0) - v(1,0,0) + x(1,0) = 10
MCLin1(0,1,0):  u(0,1,0) >= -0
MCLin2(0,1,0):  -63 y(1,0,0) - u(0,1,0) <= -0
MCLin3(0,1,0):  38 y(1,0,0) + v(0,1,0) - u(0,1,0) <= 38
MCLin4(0,1,0):  38 y(1,0,0) - u(0,1,0) >= -0
MCLin5(0,1,0):  -63 y(1,0,0) + v(0,1,0) - u(0,1,0) >= -63
MCLin6(1,0,0):  u(1,0,0) >= -0
MCLin7(1,0,0):  -53 y(0,1,0) - u(1,0,0) <= -0
MCLin8(1,0,0):  48 y(0,1,0) + v(1,0,0) - u(1,0,0) <= 48
MCLin9(1,0,0):  48 y(0,1,0) - u(1,0,0) >= -0
MCLin10(1,0,0):  -53 y(0,1,0) + v(1,0,0) - u(1,0,0) >= -53
MCLinV(0,1,1):  x(0,1) - v(0,1,1) - x(1,1) = 2
MCLinV(1,0,1):  - x(0,1) - v(1,0,1) + x(1,1) = 9
MCLin1(0,1,1):  u(0,1,1) >= -0
MCLin2(0,1,1):  -59 y(1,0,1) - u(0,1,1) <= -0
MCLin3(0,1,1):  42 y(1,0,1) + v(0,1,1) - u(0,1,1) <= 42
MCLin4(0,1,1):  42 y(1,0,1) - u(0,1,1) >= -0
MCLin5(0,1,1):  -59 y(1,0,1) + v(0,1,1) - u(0,1,1) >= -59
MCLin6(1,0,1):  u(1,0,1) >= -0
MCLin7(1,0,1):  -53 y(0,1,1) - u(1,0,1) <= -0
MCLin8(1,0,1):  48 y(0,1,1) + v(1,0,1) - u(1,0,1) <= 48
MCLin9(1,0,1):  48 y(0,1,1) - u(1,0,1) >= -0
MCLin10(1,0,1):  -53 y(0,1,1) + v(1,0,1) - u(1,0,1) >= -53
MCLinV(0,1,2):  x(0,2) - v(0,1,2) - x(1,2) = 4
MCLinV(1,0,2):  - x(0,2) - v(1,0,2) + x(1,2) = 7
MCLin1(0,1,2):  u(0,1,2) >= -0
MCLin2(0,1,2):  -48 y(1,0,2) - u(0,1,2) <= -0
MCLin3(0,1,2):  53 y(1,0,2) + v(0,1,2) - u(0,1,2) <= 53
MCLin4(0,1,2):  53 y(1,0,2) - u(0,1,2) >= -0
MCLin5(0,1,2):  -48 y(1,0,2) + v(0,1,2) - u(0,1,2) >= -48
MCLin6(1,0,2):  u(1,0,2) >= -0
MCLin7(1,0,2):  -64 y(0,1,2) - u(1,0,2) <= -0
MCLin8(1,0,2):  37 y(0,1,2) + v(1,0,2) - u(1,0,2) <= 37
MCLin9(1,0,2):  37 y(0,1,2) - u(1,0,2) >= -0
MCLin10(1,0,2):  -64 y(0,1,2) + v(1,0,2) - u(1,0,2) >= -64
MCLinV(0,2,0):  x(0,0) - v(0,2,0) - x(2,0) = 5
MCLinV(2,0,0):  - x(0,0) - v(2,0,0) + x(2,0) = 10
MCLin1(0,2,0):  u(0,2,0) >= -0
MCLin2(0,2,0):  -69 y(2,0,0) - u(0,2,0) <= -0
MCLin3(0,2,0):  32 y(2,0,0) + v(0,2,0) - u(0,2,0) <= 32
MCLin4(0,2,0):  32 y(2,0,0) - u(0,2,0) >= -0
MCLin5(0,2,0):  -69 y(2,0,0) + v(0,2,0) - u(0,2,0) >= -69
MCLin6(2,0,0):  u(2,0,0) >= -0
MCLin7(2,0,0):  -47 y(0,2,0) - u(2,0,0) <= -0
MCLin8(2,0,0):  54 y(0,2,0) + v(2,0,0) - u(2,0,0) <= 54
MCLin9(2,0,0):  54 y(0,2,0) - u(2,0,0) >= -0
MCLin10(2,0,0):  -47 y(0,2,0) + v(2,0,0) - u(2,0,0) >= -47
MCLinV(0,2,1):  x(0,1) - v(0,2,1) - x(2,1) = 2
MCLinV(2,0,1):  - x(0,1) - v(2,0,1) + x(2,1) = 9
MCLin1(0,2,1):  u(0,2,1) >= -0
MCLin2(0,2,1):  -50 y(2,0,1) - u(0,2,1) <= -0
MCLin3(0,2,1):  51 y(2,0,1) + v(0,2,1) - u(0,2,1) <= 51
MCLin4(0,2,1):  51 y(2,0,1) - u(0,2,1) >= -0
MCLin5(0,2,1):  -50 y(2,0,1) + v(0,2,1) - u(0,2,1) >= -50
MCLin6(2,0,1):  u(2,0,1) >= -0
MCLin7(2,0,1):  -62 y(0,2,1) - u(2,0,1) <= -0
MCLin8(2,0,1):  39 y(0,2,1) + v(2,0,1) - u(2,0,1) <= 39
MCLin9(2,0,1):  39 y(0,2,1) - u(2,0,1) >= -0
MCLin10(2,0,1):  -62 y(0,2,1) + v(2,0,1) - u(2,0,1) >= -62
MCLinV(0,2,2):  x(0,2) - v(0,2,2) - x(2,2) = 4
MCLinV(2,0,2):  - x(0,2) - v(2,0,2) + x(2,2) = 7
MCLin1(0,2,2):  u(0,2,2) >= -0
MCLin2(0,2,2):  -45 y(2,0,2) - u(0,2,2) <= -0
MCLin3(0,2,2):  56 y(2,0,2) + v(0,2,2) - u(0,2,2) <= 56
MCLin4(0,2,2):  56 y(2,0,2) - u(0,2,2) >= -0
MCLin5(0,2,2):  -45 y(2,0,2) + v(0,2,2) - u(0,2,2) >= -45
MCLin6(2,0,2):  u(2,0,2) >= -0
MCLin7(2,0,2):  -67 y(0,2,2) - u(2,0,2) <= -0
MCLin8(2,0,2):  34 y(0,2,2) + v(2,0,2) - u(2,0,2) <= 34
MCLin9(2,0,2):  34 y(0,2,2) - u(2,0,2) >= -0
MCLin10(2,0,2):  -67 y(0,2,2) + v(2,0,2) - u(2,0,2) >= -67
MCLinV(0,3,0):  x(0,0) - v(0,3,0) - x(3,0) = 1
MCLinV(3,0,0):  - x(0,0) - v(3,0,0) + x(3,0) = 10
MCLin1(0,3,0):  u(0,3,0) >= -0
MCLin2(0,3,0):  -59 y(3,0,0) - u(0,3,0) <= -0
MCLin3(0,3,0):  32 y(3,0,0) + v(0,3,0) - u(0,3,0) <= 32
MCLin4(0,3,0):  32 y(3,0,0) - u(0,3,0) >= -0
MCLin5(0,3,0):  -59 y(3,0,0) + v(0,3,0) - u(0,3,0) >= -59
MCLin6(3,0,0):  u(3,0,0) >= -0
MCLin7(3,0,0):  -43 y(0,3,0) - u(3,0,0) <= -0
MCLin8(3,0,0):  48 y(0,3,0) + v(3,0,0) - u(3,0,0) <= 48
MCLin9(3,0,0):  48 y(0,3,0) - u(3,0,0) >= -0
MCLin10(3,0,0):  -43 y(0,3,0) + v(3,0,0) - u(3,0,0) >= -43
MCLinV(0,3,1):  x(0,1) - v(0,3,1) - x(3,1) = 10
MCLinV(3,0,1):  - x(0,1) - v(3,0,1) + x(3,1) = 9
MCLin1(0,3,1):  u(0,3,1) >= -0
MCLin2(0,3,1):  -59 y(3,0,1) - u(0,3,1) <= -0
MCLin3(0,3,1):  32 y(3,0,1) + v(0,3,1) - u(0,3,1) <= 32
MCLin4(0,3,1):  32 y(3,0,1) - u(0,3,1) >= -0
MCLin5(0,3,1):  -59 y(3,0,1) + v(0,3,1) - u(0,3,1) >= -59
MCLin6(3,0,1):  u(3,0,1) >= -0
MCLin7(3,0,1):  -51 y(0,3,1) - u(3,0,1) <= -0
MCLin8(3,0,1):  40 y(0,3,1) + v(3,0,1) - u(3,0,1) <= 40
MCLin9(3,0,1):  40 y(0,3,1) - u(3,0,1) >= -0
MCLin10(3,0,1):  -51 y(0,3,1) + v(3,0,1) - u(3,0,1) >= -51
MCLinV(0,3,2):  x(0,2) - v(0,3,2) - x(3,2) = 10
MCLinV(3,0,2):  - x(0,2) - v(3,0,2) + x(3,2) = 7
MCLin1(0,3,2):  u(0,3,2) >= -0
MCLin2(0,3,2):  -39 y(3,0,2) - u(0,3,2) <= -0
MCLin3(0,3,2):  52 y(3,0,2) + v(0,3,2) - u(0,3,2) <= 52
MCLin4(0,3,2):  52 y(3,0,2) - u(0,3,2) >= -0
MCLin5(0,3,2):  -39 y(3,0,2) + v(0,3,2) - u(0,3,2) >= -39
MCLin6(3,0,2):  u(3,0,2) >= -0
MCLin7(3,0,2):  -69 y(0,3,2) - u(3,0,2) <= -0
MCLin8(3,0,2):  22 y(0,3,2) + v(3,0,2) - u(3,0,2) <= 22
MCLin9(3,0,2):  22 y(0,3,2) - u(3,0,2) >= -0
MCLin10(3,0,2):  -69 y(0,3,2) + v(3,0,2) - u(3,0,2) >= -69
MCLinV(1,2,0):  x(1,0) - v(1,2,0) - x(2,0) = 5
MCLinV(2,1,0):  - x(1,0) - v(2,1,0) + x(2,0) = 5
MCLin1(1,2,0):  u(1,2,0) >= -0
MCLin2(1,2,0):  -69 y(2,1,0) - u(1,2,0) <= -0
MCLin3(1,2,0):  47 y(2,1,0) + v(1,2,0) - u(1,2,0) <= 47
MCLin4(1,2,0):  47 y(2,1,0) - u(1,2,0) >= -0
MCLin5(1,2,0):  -69 y(2,1,0) + v(1,2,0) - u(1,2,0) >= -69
MCLin6(2,1,0):  u(2,1,0) >= -0
MCLin7(2,1,0):  -57 y(1,2,0) - u(2,1,0) <= -0
MCLin8(2,1,0):  59 y(1,2,0) + v(2,1,0) - u(2,1,0) <= 59
MCLin9(2,1,0):  59 y(1,2,0) - u(2,1,0) >= -0
MCLin10(2,1,0):  -57 y(1,2,0) + v(2,1,0) - u(2,1,0) >= -57
MCLinV(1,2,1):  x(1,1) - v(1,2,1) - x(2,1) = 2
MCLinV(2,1,1):  - x(1,1) - v(2,1,1) + x(2,1) = 2
MCLin1(1,2,1):  u(1,2,1) >= -0
MCLin2(1,2,1):  -51 y(2,1,1) - u(1,2,1) <= -0
MCLin3(1,2,1):  65 y(2,1,1) + v(1,2,1) - u(1,2,1) <= 65
MCLin4(1,2,1):  65 y(2,1,1) - u(1,2,1) >= -0
MCLin5(1,2,1):  -51 y(2,1,1) + v(1,2,1) - u(1,2,1) >= -51
MCLin6(2,1,1):  u(2,1,1) >= -0
MCLin7(2,1,1):  -69 y(1,2,1) - u(2,1,1) <= -0
MCLin8(2,1,1):  47 y(1,2,1) + v(2,1,1) - u(2,1,1) <= 47
MCLin9(2,1,1):  47 y(1,2,1) - u(2,1,1) >= -0
MCLin10(2,1,1):  -69 y(1,2,1) + v(2,1,1) - u(2,1,1) >= -69
MCLinV(1,2,2):  x(1,2) - v(1,2,2) - x(2,2) = 4
MCLinV(2,1,2):  - x(1,2) - v(2,1,2) + x(2,2) = 4
MCLin1(1,2,2):  u(1,2,2) >= -0
MCLin2(1,2,2):  -59 y(2,1,2) - u(1,2,2) <= -0
MCLin3(1,2,2):  57 y(2,1,2) + v(1,2,2) - u(1,2,2) <= 57
MCLin4(1,2,2):  57 y(2,1,2) - u(1,2,2) >= -0
MCLin5(1,2,2):  -59 y(2,1,2) + v(1,2,2) - u(1,2,2) >= -59
MCLin6(2,1,2):  u(2,1,2) >= -0
MCLin7(2,1,2):  -65 y(1,2,2) - u(2,1,2) <= -0
MCLin8(2,1,2):  51 y(1,2,2) + v(2,1,2) - u(2,1,2) <= 51
MCLin9(2,1,2):  51 y(1,2,2) - u(2,1,2) >= -0
MCLin10(2,1,2):  -65 y(1,2,2) + v(2,1,2) - u(2,1,2) >= -65
MCLinV(1,3,0):  x(1,0) - v(1,3,0) - x(3,0) = 1
MCLinV(3,1,0):  - x(1,0) - v(3,1,0) + x(3,0) = 5
MCLin1(1,3,0):  u(1,3,0) >= -0
MCLin2(1,3,0):  -59 y(3,1,0) - u(1,3,0) <= -0
MCLin3(1,3,0):  47 y(3,1,0) + v(1,3,0) - u(1,3,0) <= 47
MCLin4(1,3,0):  47 y(3,1,0) - u(1,3,0) >= -0
MCLin5(1,3,0):  -59 y(3,1,0) + v(1,3,0) - u(1,3,0) >= -59
MCLin6(3,1,0):  u(3,1,0) >= -0
MCLin7(3,1,0):  -53 y(1,3,0) - u(3,1,0) <= -0
MCLin8(3,1,0):  53 y(1,3,0) + v(3,1,0) - u(3,1,0) <= 53
MCLin9(3,1,0):  53 y(1,3,0) - u(3,1,0) >= -0
MCLin10(3,1,0):  -53 y(1,3,0) + v(3,1,0) - u(3,1,0) >= -53
MCLinV(1,3,1):  x(1,1) - v(1,3,1) - x(3,1) = 10
MCLinV(3,1,1):  - x(1,1) - v(3,1,1) + x(3,1) = 2
MCLin1(1,3,1):  u(1,3,1) >= -0
MCLin2(1,3,1):  -60 y(3,1,1) - u(1,3,1) <= -0
MCLin3(1,3,1):  46 y(3,1,1) + v(1,3,1) - u(1,3,1) <= 46
MCLin4(1,3,1):  46 y(3,1,1) - u(1,3,1) >= -0
MCLin5(1,3,1):  -60 y(3,1,1) + v(1,3,1) - u(1,3,1) >= -60
MCLin6(3,1,1):  u(3,1,1) >= -0
MCLin7(3,1,1):  -58 y(1,3,1) - u(3,1,1) <= -0
MCLin8(3,1,1):  48 y(1,3,1) + v(3,1,1) - u(3,1,1) <= 48
MCLin9(3,1,1):  48 y(1,3,1) - u(3,1,1) >= -0
MCLin10(3,1,1):  -58 y(1,3,1) + v(3,1,1) - u(3,1,1) >= -58
MCLinV(1,3,2):  x(1,2) - v(1,3,2) - x(3,2) = 10
MCLinV(3,1,2):  - x(1,2) - v(3,1,2) + x(3,2) = 4
MCLin1(1,3,2):  u(1,3,2) >= -0
MCLin2(1,3,2):  -53 y(3,1,2) - u(1,3,2) <= -0
MCLin3(1,3,2):  53 y(3,1,2) + v(1,3,2) - u(1,3,2) <= 53
MCLin4(1,3,2):  53 y(3,1,2) - u(1,3,2) >= -0
MCLin5(1,3,2):  -53 y(3,1,2) + v(1,3,2) - u(1,3,2) >= -53
MCLin6(3,1,2):  u(3,1,2) >= -0
MCLin7(3,1,2):  -67 y(1,3,2) - u(3,1,2) <= -0
MCLin8(3,1,2):  39 y(1,3,2) + v(3,1,2) - u(3,1,2) <= 39
MCLin9(3,1,2):  39 y(1,3,2) - u(3,1,2) >= -0
MCLin10(3,1,2):  -67 y(1,3,2) + v(3,1,2) - u(3,1,2) >= -67
MCLinV(2,3,0):  x(2,0) - v(2,3,0) - x(3,0) = 1
MCLinV(3,2,0):  - x(2,0) - v(3,2,0) + x(3,0) = 5
MCLin1(2,3,0):  u(2,3,0) >= -0
MCLin2(2,3,0):  -53 y(3,2,0) - u(2,3,0) <= -0
MCLin3(2,3,0):  53 y(3,2,0) + v(2,3,0) - u(2,3,0) <= 53
MCLin4(2,3,0):  53 y(3,2,0) - u(2,3,0) >= -0
MCLin5(2,3,0):  -53 y(3,2,0) + v(2,3,0) - u(2,3,0) >= -53
MCLin6(3,2,0):  u(3,2,0) >= -0
MCLin7(3,2,0):  -59 y(2,3,0) - u(3,2,0) <= -0
MCLin8(3,2,0):  47 y(2,3,0) + v(3,2,0) - u(3,2,0) <= 47
MCLin9(3,2,0):  47 y(2,3,0) - u(3,2,0) >= -0
MCLin10(3,2,0):  -59 y(2,3,0) + v(3,2,0) - u(3,2,0) >= -59
MCLinV(2,3,1):  x(2,1) - v(2,3,1) - x(3,1) = 10
MCLinV(3,2,1):  - x(2,1) - v(3,2,1) + x(3,1) = 2
MCLin1(2,3,1):  u(2,3,1) >= -0
MCLin2(2,3,1):  -69 y(3,2,1) - u(2,3,1) <= -0
MCLin3(2,3,1):  37 y(3,2,1) + v(2,3,1) - u(2,3,1) <= 37
MCLin4(2,3,1):  37 y(3,2,1) - u(2,3,1) >= -0
MCLin5(2,3,1):  -69 y(3,2,1) + v(2,3,1) - u(2,3,1) >= -69
MCLin6(3,2,1):  u(3,2,1) >= -0
MCLin7(3,2,1):  -49 y(2,3,1) - u(3,2,1) <= -0
MCLin8(3,2,1):  57 y(2,3,1) + v(3,2,1) - u(3,2,1) <= 57
MCLin9(3,2,1):  57 y(2,3,1) - u(3,2,1) >= -0
MCLin10(3,2,1):  -49 y(2,3,1) + v(3,2,1) - u(3,2,1) >= -49
MCLinV(2,3,2):  x(2,2) - v(2,3,2) - x(3,2) = 10
MCLinV(3,2,2):  - x(2,2) - v(3,2,2) + x(3,2) = 4
MCLin1(2,3,2):  u(2,3,2) >= -0
MCLin2(2,3,2):  -56 y(3,2,2) - u(2,3,2) <= -0
MCLin3(2,3,2):  50 y(3,2,2) + v(2,3,2) - u(2,3,2) <= 50
MCLin4(2,3,2):  50 y(3,2,2) - u(2,3,2) >= -0
MCLin5(2,3,2):  -56 y(3,2,2) + v(2,3,2) - u(2,3,2) >= -56
MCLin6(3,2,2):  u(3,2,2) >= -0
MCLin7(3,2,2):  -64 y(2,3,2) - u(3,2,2) <= -0
MCLin8(3,2,2):  42 y(2,3,2) + v(3,2,2) - u(3,2,2) <= 42
MCLin9(3,2,2):  42 y(2,3,2) - u(3,2,2) >= -0
MCLin10(3,2,2):  -64 y(2,3,2) + v(3,2,2) - u(3,2,2) >= -64
makespan(0):  C - x(0,2) >= 7
makespan(1):  C - x(1,1) >= 2
makespan(2):  C - x(2,0) >= 5
makespan(3):  C - x(3,1) >= 10
cut_clique_0(0123,0):  0.20000 x(0,0) + 0.10000 x(1,0) >= 1
cut_clique_0(123,0):  0.01639 x(2,0) + 0.08197 x(3,0) >= 1
cut_clique_0(012,0):  0.20000 x(0,0) + 0.10000 x(1,0) >= 1
cut_clique_0(013,0):  0.20000 x(0,0) + 0.10000 x(1,0) >= 1
cut_clique_0(023,0):  0.03077 x(0,0) + 0.07692 x(2,0) + 0.01538 x(3,0) >= 1
cut_clique_0(0123,1):  0.02926 x(0,1) + 0.00309 x(1,1) + 0.03252 x(3,1) >= 1
cut_clique_0(013,1):  0.02926 x(0,1) + 0.00309 x(1,1) + 0.03252 x(3,1) >= 1
cut_clique_0(023,1):  0.02768 x(0,1) + 0.03806 x(3,1) >= 1
cut_clique_0(012,1):  0.08403 x(0,1) + 0.00840 x(1,1) >= 1
cut_clique_0(0123,2):  0.10000 x(2,2) + 0.13333 x(3,2) >= 1
cut_clique_0(123,2):  0.10000 x(2,2) + 0.13333 x(3,2) >= 1
cut_clique_0(023,2):  0.10000 x(2,2) + 0.13333 x(3,2) >= 1
cut_clique_1(0123,0):  0.03636 x(0,0) + 0.10000 x(2,0) >= 1
cut_clique_1(023,0):  0.03636 x(0,0) + 0.10000 x(2,0) >= 1
cut_clique_1(012,0):  0.03636 x(0,0) + 0.10000 x(2,0) >= 1
cut_clique_0:  0.01210 x(0,0) + 0.02305 x(0,1) + 0.00576 x(1,1) + 0.03170 x(3,1) >= 1
cut_clique_1:  0.00996 x(0,0) + 0.02318 x(0,1) + 0.00527 x(1,1) + 0.03239 x(3,1) >= 1
Bounds
 0 <= C <= 69
 0 <= x(0,0) <= 43
 0 <= y(0,1,0) <= 1
 0 <= y(1,0,0) <= 1
 -63 <= v(0,1,0) <= 38
 -53 <= v(1,0,0) <= 48
 -690 <= u(0,1,0)
 -690 <= u(1,0,0)
 0 <= y(0,2,0) <= 1
 0 <= y(2,0,0) <= 1
 -69 <= v(0,2,0) <= 32
 -47 <= v(2,0,0) <= 54
 -690 <= u(0,2,0)
 -690 <= u(2,0,0)
 0 <= y(0,3,0) <= 1
 0 <= y(3,0,0) <= 1
 -59 <= v(0,3,0) <= 32
 -43 <= v(3,0,0) <= 48
 -690 <= u(0,3,0)
 -690 <= u(3,0,0)
 0 <= x(1,0) <= 58
 0 <= y(1,2,0) <= 1
 0 <= y(2,1,0) <= 1
 -69 <= v(1,2,0) <= 47
 -57 <= v(2,1,0) <= 59
 -690 <= u(1,2,0)
 -690 <= u(2,1,0)
 0 <= y(1,3,0) <= 1
 0 <= y(3,1,0) <= 1
 -59 <= v(1,3,0) <= 47
 -53 <= v(3,1,0) <= 53
 -690 <= u(1,3,0)
 -690 <= u(3,1,0)
 6 <= x(2,0) <= 64
 0 <= y(2,3,0) <= 1
 0 <= y(3,2,0) <= 1
 -53 <= v(2,3,0) <= 53
 -59 <= v(3,2,0) <= 47
 -690 <= u(2,3,0)
 -690 <= u(3,2,0)
 10 <= x(3,0) <= 58
 10 <= x(0,1) <= 53
 0 <= y(0,1,1) <= 1
 0 <= y(1,0,1) <= 1
 -59 <= v(0,1,1) <= 42
 -53 <= v(1,0,1) <= 48
 -690 <= u(0,1,1)
 -690 <= u(1,0,1)
 0 <= y(0,2,1) <= 1
 0 <= y(2,0,1) <= 1
 -50 <= v(0,2,1) <= 51
 -62 <= v(2,0,1) <= 39
 -690 <= u(0,2,1)
 -690 <= u(2,0,1)
 0 <= y(0,3,1) <= 1
 0 <= y(3,0,1) <= 1
 -59 <= v(0,3,1) <= 32
 -51 <= v(3,0,1) <= 40
 -690 <= u(0,3,1)
 -690 <= u(3,0,1)
 9 <= x(1,1) <= 67
 0 <= y(1,2,1) <= 1
 0 <= y(2,1,1) <= 1
 -51 <= v(1,2,1) <= 65
 -69 <= v(2,1,1) <= 47
 -690 <= u(1,2,1)
 -690 <= u(2,1,1)
 0 <= y(1,3,1) <= 1
 0 <= y(3,1,1) <= 1
 -60 <= v(1,3,1) <= 46
 -58 <= v(3,1,1) <= 48
 -690 <= u(1,3,1)
 -690 <= u(3,1,1)
 0 <= x(2,1) <= 58
 0 <= y(2,3,1) <= 1
 0 <= y(3,2,1) <= 1
 -69 <= v(2,3,1) <= 37
 -49 <= v(3,2,1) <= 57
 -690 <= u(2,3,1)
 -690 <= u(3,2,1)
 11 <= x(3,1) <= 59
 19 <= x(0,2) <= 62
 0 <= y(0,1,2) <= 1
 0 <= y(1,0,2) <= 1
 -48 <= v(0,1,2) <= 53
 -64 <= v(1,0,2) <= 37
 -690 <= u(0,1,2)
 -690 <= u(1,0,2)
 0 <= y(0,2,2) <= 1
 0 <= y(2,0,2) <= 1
 -45 <= v(0,2,2) <= 56
 -67 <= v(2,0,2) <= 34
 -690 <= u(0,2,2)
 -690 <= u(2,0,2)
 0 <= y(0,3,2) <= 1
 0 <= y(3,0,2) <= 1
 -39 <= v(0,3,2) <= 52
 -69 <= v(3,0,2) <= 22
 -690 <= u(0,3,2)
 -690 <= u(3,0,2)
 5 <= x(1,2) <= 63
 0 <= y(1,2,2) <= 1
 0 <= y(2,1,2) <= 1
 -59 <= v(1,2,2) <= 57
 -65 <= v(2,1,2) <= 51
 -690 <= u(1,2,2)
 -690 <= u(2,1,2)
 0 <= y(1,3,2) <= 1
 0 <= y(3,1,2) <= 1
 -53 <= v(1,3,2) <= 53
 -67 <= v(3,1,2) <= 39
 -690 <= u(1,3,2)
 -690 <= u(3,1,2)
 2 <= x(2,2) <= 60
 0 <= y(2,3,2) <= 1
 0 <= y(3,2,2) <= 1
 -56 <= v(2,3,2) <= 50
 -64 <= v(3,2,2) <= 42
 -690 <= u(2,3,2)
 -690 <= u(3,2,2)
 0 <= x(3,2) <= 48
Integers
C x(0,0) y(0,1,0) y(1,0,0) v(0,1,0) v(1,0,0) u(0,1,0) u(1,0,0) y(0,2,0) y(2,0,0) 
v(0,2,0) v(2,0,0) u(0,2,0) u(2,0,0) y(0,3,0) y(3,0,0) v(0,3,0) v(3,0,0) u(0,3,0) u(3,0,0) 
x(1,0) y(1,2,0) y(2,1,0) v(1,2,0) v(2,1,0) u(1,2,0) u(2,1,0) y(1,3,0) y(3,1,0) v(1,3,0) 
v(3,1,0) u(1,3,0) u(3,1,0) x(2,0) y(2,3,0) y(3,2,0) v(2,3,0) v(3,2,0) u(2,3,0) u(3,2,0) 
x(3,0) x(0,1) y(0,1,1) y(1,0,1) v(0,1,1) v(1,0,1) u(0,1,1) u(1,0,1) y(0,2,1) y(2,0,1) 
v(0,2,1) v(2,0,1) u(0,2,1) u(2,0,1) y(0,3,1) y(3,0,1) v(0,3,1) v(3,0,1) u(0,3,1) u(3,0,1) 
x(1,1) y(1,2,1) y(2,1,1) v(1,2,1) v(2,1,1) u(1,2,1) u(2,1,1) y(1,3,1) y(3,1,1) v(1,3,1) 
v(3,1,1) u(1,3,1) u(3,1,1) x(2,1) y(2,3,1) y(3,2,1) v(2,3,1) v(3,2,1) u(2,3,1) u(3,2,1) 
x(3,1) x(0,2) y(0,1,2) y(1,0,2) v(0,1,2) v(1,0,2) u(0,1,2) u(1,0,2) y(0,2,2) y(2,0,2) 
v(0,2,2) v(2,0,2) u(0,2,2) u(2,0,2) y(0,3,2) y(3,0,2) v(0,3,2) v(3,0,2) u(0,3,2) u(3,0,2) 
x(1,2) y(1,2,2) y(2,1,2) v(1,2,2) v(2,1,2) u(1,2,2) u(2,1,2) y(1,3,2) y(3,1,2) v(1,3,2) 
v(3,1,2) u(1,3,2) u(3,1,2) x(2,2) y(2,3,2) y(3,2,2) v(2,3,2) v(3,2,2) u(2,3,2) u(3,2,2) 
x(3,2) 
End
